g3 0 1 0	# problem eigminc
 22 22 1 0 22	# vars, constraints, objectives, ranges, eqns
 22 0	# nonlinear constraints, objectives
 0 0	# network constraints: nonlinear, linear
 22 0 0	# nonlinear vars in constraints, objectives, both
 0 0 0 1	# linear network variables; functions; arith, flags
 0 0 0 0 0	# discrete variables: binary, integer, nonlinear (b,c,o)
 103 1	# nonzeros in Jacobian, gradients
 0 0	# max name lengths: constraints, variables
 0 0 0 0 0	# common exprs: b,c,o,c1,o1
b
0 -1 1
0 -1 1
0 -1 1
0 -1 1
0 -1 1
0 -1 1
0 -1 1
0 -1 1
0 -1 1
0 -1 1
0 -1 1
0 -1 1
0 -1 1
0 -1 1
0 -1 1
0 -1 1
0 -1 1
0 -1 1
0 -1 1
0 -1 1
0 -1 1
0 -1 1
x22
0 1
1 0.2182178902359924
2 0.2182178902359924
3 0.2182178902359924
4 0.2182178902359924
5 0.2182178902359924
6 0.2182178902359924
7 0.2182178902359924
8 0.2182178902359924
9 0.2182178902359924
10 0.2182178902359924
11 0.2182178902359924
12 0.2182178902359924
13 0.2182178902359924
14 0.2182178902359924
15 0.2182178902359924
16 0.2182178902359924
17 0.2182178902359924
18 0.2182178902359924
19 0.2182178902359924
20 0.2182178902359924
21 0.2182178902359924
r
4 1
4 0
4 0
4 0
4 0
4 0
4 0
4 0
4 0
4 0
4 0
4 0
4 0
4 0
4 0
4 0
4 0
4 0
4 0
4 0
4 0
4 0
C0
o54
21
o2
v1
v1
o2
v2
v2
o2
v3
v3
o2
v4
v4
o2
v5
v5
o2
v6
v6
o2
v7
v7
o2
v8
v8
o2
v9
v9
o2
v10
v10
o2
v11
v11
o2
v12
v12
o2
v13
v13
o2
v14
v14
o2
v15
v15
o2
v16
v16
o2
v17
v17
o2
v18
v18
o2
v19
v19
o2
v20
v20
o2
v21
v21
C1
o2
v1
v0
C2
o2
v2
v0
C3
o2
v3
v0
C4
o2
v4
v0
C5
o2
v5
v0
C6
o2
v6
v0
C7
o2
v7
v0
C8
o2
v8
v0
C9
o2
v9
v0
C10
o2
v10
v0
C11
o2
v11
v0
C12
o2
v12
v0
C13
o2
v13
v0
C14
o2
v14
v0
C15
o2
v15
v0
C16
o2
v16
v0
C17
o2
v17
v0
C18
o2
v18
v0
C19
o2
v19
v0
C20
o2
v20
v0
C21
o2
v21
v0
O0 0
n0
k21
21
24
28
32
36
40
44
48
52
56
60
64
68
72
76
80
84
88
92
96
100
J0 21
1 0
2 0
3 0
4 0
5 0
6 0
7 0
8 0
9 0
10 0
11 0
12 0
13 0
14 0
15 0
16 0
17 0
18 0
19 0
20 0
21 0
J1 3
0 0
1 -10
2 -1
J2 4
0 0
1 -1
2 -9
3 -1
J3 4
0 0
2 -1
3 -8
4 -1
J4 4
0 0
3 -1
4 -7
5 -1
J5 4
0 0
4 -1
5 -6
6 -1
J6 4
0 0
5 -1
6 -5
7 -1
J7 4
0 0
6 -1
7 -4
8 -1
J8 4
0 0
7 -1
8 -3
9 -1
J9 4
0 0
8 -1
9 -2
10 -1
J10 4
0 0
9 -1
10 -1
11 -1
J11 4
0 0
10 -1
11 0
12 -1
J12 4
0 0
11 -1
12 1
13 -1
J13 4
0 0
12 -1
13 2
14 -1
J14 4
0 0
13 -1
14 3
15 -1
J15 4
0 0
14 -1
15 4
16 -1
J16 4
0 0
15 -1
16 5
17 -1
J17 4
0 0
16 -1
17 6
18 -1
J18 4
0 0
17 -1
18 7
19 -1
J19 4
0 0
18 -1
19 8
20 -1
J20 4
0 0
19 -1
20 9
21 -1
J21 3
0 0
20 -1
21 10
G0 1
0 1
